data;
param n:=100;
param w:=1 454 2 -263 3 370 4 -57 5 474 6 -241 7 -30 8 64 9 -507 10 -136 11 -67 12 450 13 -171 14 407 15 -493 16 53 17 83 18 288 19 -481 20 395 21 -143 22 1 23 -404 24 138 25 -71 26 -456 27 78 28 -312 29 320 30 -198 31 -176 32 -348 33 -100 34 41 35 -202 36 426 37 21 38 -348 39 55 40 433 41 474 42 464 43 -210 44 -300 45 238 46 -448 47 -79 48 394 49 -201 50 -306 51 263 52 394 53 -91 54 -226 55 121 56 101 57 -466 58 -208 59 233 60 115 61 393 62 319 63 -264 64 216 65 -468 66 350 67 65 68 -71 69 -251 70 139 71 441 72 -221 73 -470 74 364 75 -409 76 -517 77 301 78 -87 79 -462 80 117 81 308 82 -141 83 -229 84 -213 85 28 86 -247 87 94 88 -303 89 -277 90 267 91 402 92 343 93 323 94 388 95 176 96 -438 97 -30 98 79 99 408 100 -32;
